138899
69,13,25,35,65,70,20,47,30,18,4,21,23,43,67,58,52,7,82,27,78,34,5,77,60,14,68,24,54,22,11,2,56,42,59,46,80,71,50,33,48,41,29,1,6,55,10,37,15,32,26,74,31,81,39,73,57,76,8,16,3,64,49,51,38,40,62,19,75,66,12,17,36,0,9,28,63,72,44,45,53,79,61